problems/csplib-prob015/SchursLemma-models/noch/O2/lingeling/model_1_3-5-15-solution000001.eprime-solution
language ESSENCE' 1.0

letting boxes_PartitionAsSet_ExplicitR5_ExplicitVarSizeWithMarker_Marker be [1, 2, 2, 5, 5; int(1..5)]
letting boxes_PartitionAsSet_ExplicitR5_ExplicitVarSizeWithMarker_Values be
        [[2, 1, 1, 1, 1, 1, 1, 1, 1, 1, 1, 1, 1, 1, 1; int(1..15)],
         [4, 5, 1, 1, 1, 1, 1, 1, 1, 1, 1, 1, 1, 1, 1; int(1..15)],
         [6, 10, 1, 1, 1, 1, 1, 1, 1, 1, 1, 1, 1, 1, 1; int(1..15)],
         [1, 3, 11, 13, 15, 1, 1, 1, 1, 1, 1, 1, 1, 1, 1; int(1..15)],
         [7, 8, 9, 12, 14, 1, 1, 1, 1, 1, 1, 1, 1, 1, 1; int(1..15)]; int(1..5)]
