problems/csplib-prob015/SchursLemma-models/noch/O2/lingeling/model_1_3-5-15-solution000001.solution
language Essence 1.3

letting boxes be partition({1, 3, 11, 13, 15}, {2}, {4, 5}, {6, 10}, {7, 8, 9, 12, 14})
